4 
5  29 49 
6  05 20 35 50 
7  05 20 35 50 
8  05 20 35 50 
9  05 20 33 48 
10  03 18 33 48 
11  03 18 33 48 
12  03 18 33 48 
13  03 19 35 50 
14  05 20 36 50 
15  05 20 33 48 
16  03 18 33 48 
17  03 18 33 48 
18  03 18 33 50 
19  05 19 33 48 
20  03 18 
21 
